Autometic mesh
 0
{{ scheme }}
 {{ x }}  {{ y }}  {{ z }}
 0  0  0
