Pt Cu Pt
 1.0000000000000000
     5.5437171645025325    0.0000000000000000    0.0000000000000000
     2.7718585822512662    4.8009998958550284    0.0000000000000000
     0.0000000000000000    0.0000000000000000   24.0528522208933317
 Pt  Cu
 19  1
Selective dynamics
Direct
 -0.7384622484064965 -1.2288412475232857  0.0000000000000000   F   F   F
 -0.2384622484064966 -1.2288412475232857  0.0000000000000000   F   F   F
 -0.7384622484064967 -0.7288412475232857  0.0000000000000000   F   F   F
 -0.2384622484064966 -0.7288412475232857  0.0000000000000000   F   F   F
 -0.5717955817398300 -1.5621745808566190  0.0940933338981483   F   F   F
 -0.0717955817398302 -1.5621745808566190  0.0940933338981483   F   F   F
 -0.5717955817398300 -1.0621745808566190  0.0940933338981483   F   F   F
 -0.0717955817398299 -1.0621745808566190  0.0940933338981483   F   F   F
 -0.4051289150731633 -1.3955079141899522  0.1881866677962966   F   F   F
  0.0948710849268367 -1.3955079141899522  0.1881866677962966   F   F   F
 -0.4051289150731633 -0.8955079141899523  0.1881866677962966   F   F   F
  0.0948710849268367 -0.8955079141899523  0.1881866677962966   F   F   F
 -0.7384622484064965 -1.2288412475232857  0.2822800016944448   T   T   T
 -0.2384622484064966 -1.2288412475232857  0.2822800016944448   T   T   T
 -0.7384622484064967 -0.7288412475232857  0.2822800016944448   T   T   T
 -0.2384622484064966 -0.7288412475232857  0.2822800016944448   T   T   T
 -0.0717955817398302 -1.5621745808566190  0.3763733355925932   T   T   T
 -0.5717955817398300 -1.0621745808566190  0.3763733355925932   T   T   T
 -0.0717955817398299 -1.0621745808566190  0.3763733355925932   T   T   T
 -0.5717955817398300 -1.5621745808566190  0.3763733355925932   T   T   T