Global Parameters
ISPIN  =  2
LREAL  = .FALSE.       
ENCUT  =  520        
PREC   =  Accurate   
ADDGRID= .TRUE.       

Electronic Relaxation
ISMEAR =  0
SIGMA  =  0.05
NELM   =  120
NELMDL =  12
NELMIN =  6
EDIFF  =  5E-05

Ionic Relaxation
NSW    =  300
IBRION =  2
ISIF   =  2
EDIFFG = -1E-02
ISYM =  0

Corrections
IVDW   = 11

Additional Parameters 
{% for tag in incar_tags %}{{tag.name}} = {{tag.value}}
{% endfor %}