Cu Fe Pt 
 1.0000000000000000
    30.0000000000000000    0.0000000000000000    0.0000000000000000
     0.0000000000000000   30.0000000000000000    0.0000000000000000
     0.0000000000000000    0.0000000000000000   30.0000000000000000
 Cu  Fe  Pt 
  30  30 141
Direct
  0.3040000000000000  0.3040000000000000  0.5000000000000000
  0.3040000000000000  0.3693333333333333  0.4346666666666666
  0.3040000000000000  0.3693333333333333  0.5653333333333334
  0.4346666666666666  0.3040000000000000  0.5000000000000000
  0.4346666666666666  0.3693333333333333  0.4346666666666666
  0.4346666666666666  0.4346666666666666  0.5000000000000000
  0.3693333333333333  0.3693333333333333  0.6306666666666667
  0.3693333333333333  0.4346666666666666  0.6960000000000000
  0.4346666666666666  0.5653333333333334  0.3693333333333333
  0.3693333333333333  0.5653333333333334  0.5653333333333334
  0.4346666666666666  0.6960000000000000  0.5000000000000000
  0.5000000000000000  0.3040000000000000  0.3040000000000000
  0.5000000000000000  0.2386666666666667  0.3693333333333333
  0.5000000000000000  0.3693333333333333  0.2386666666666667
  0.5000000000000000  0.4346666666666666  0.3040000000000000
  0.5653333333333334  0.4346666666666666  0.6306666666666667
  0.5653333333333334  0.4346666666666666  0.7613333333333333
  0.5653333333333334  0.5000000000000000  0.3040000000000000
  0.5000000000000000  0.6960000000000000  0.3040000000000000
  0.5000000000000000  0.6960000000000000  0.5653333333333334
  0.5653333333333334  0.6960000000000000  0.6306666666666667
  0.5000000000000000  0.7613333333333333  0.3693333333333333
  0.5653333333333334  0.7613333333333333  0.4346666666666666
  0.6960000000000000  0.3693333333333333  0.4346666666666666
  0.6306666666666667  0.5653333333333334  0.3040000000000000
  0.6306666666666667  0.5653333333333334  0.4346666666666666
  0.6306666666666667  0.5000000000000000  0.7613333333333333
  0.6306666666666667  0.6306666666666667  0.3693333333333333
  0.6306666666666667  0.6306666666666667  0.5000000000000000
  0.7613333333333333  0.5653333333333334  0.4346666666666666
  0.3040000000000000  0.4346666666666666  0.3693333333333333
  0.3040000000000000  0.4346666666666666  0.5000000000000000
  0.3040000000000000  0.5653333333333334  0.3693333333333333
  0.2386666666666667  0.5000000000000000  0.6306666666666667
  0.3693333333333333  0.3040000000000000  0.5653333333333334
  0.4346666666666666  0.3693333333333333  0.3040000000000000
  0.4346666666666666  0.4346666666666666  0.2386666666666667
  0.3693333333333333  0.4346666666666666  0.4346666666666666
  0.4346666666666666  0.5000000000000000  0.4346666666666666
  0.3693333333333333  0.5000000000000000  0.7613333333333333
  0.4346666666666666  0.7613333333333333  0.4346666666666666
  0.5653333333333334  0.3693333333333333  0.5653333333333334
  0.5000000000000000  0.3693333333333333  0.7613333333333333
  0.5653333333333334  0.5653333333333334  0.2386666666666667
  0.5000000000000000  0.5653333333333334  0.4346666666666666
  0.5653333333333334  0.5653333333333334  0.6306666666666667
  0.5653333333333334  0.6306666666666667  0.3040000000000000
  0.5653333333333334  0.7613333333333333  0.5653333333333334
  0.5000000000000000  0.7613333333333333  0.6306666666666667
  0.6306666666666667  0.3040000000000000  0.5653333333333334
  0.6306666666666667  0.3693333333333333  0.3693333333333333
  0.6960000000000000  0.4346666666666666  0.3693333333333333
  0.6960000000000000  0.3693333333333333  0.5653333333333334
  0.6960000000000000  0.5000000000000000  0.3040000000000000
  0.6960000000000000  0.5653333333333334  0.5000000000000000
  0.6960000000000000  0.5653333333333334  0.6306666666666667
  0.6960000000000000  0.6306666666666667  0.5653333333333334
  0.6306666666666667  0.6306666666666667  0.6306666666666667
  0.6306666666666667  0.7613333333333333  0.5000000000000000
  0.7613333333333333  0.6306666666666667  0.5000000000000000
  0.2386666666666667  0.4346666666666666  0.4346666666666666
  0.2386666666666667  0.3693333333333333  0.5000000000000000
  0.2386666666666667  0.4346666666666666  0.5653333333333334
  0.3040000000000000  0.4346666666666666  0.6306666666666667
  0.3040000000000000  0.5000000000000000  0.3040000000000000
  0.2386666666666667  0.5000000000000000  0.3693333333333333
  0.2386666666666667  0.5653333333333334  0.4346666666666666
  0.3040000000000000  0.5000000000000000  0.4346666666666666
  0.2386666666666667  0.5000000000000000  0.5000000000000000
  0.2386666666666667  0.5653333333333334  0.5653333333333334
  0.3040000000000000  0.5000000000000000  0.5653333333333334
  0.3040000000000000  0.5653333333333334  0.5000000000000000
  0.3040000000000000  0.5000000000000000  0.6960000000000000
  0.3040000000000000  0.5653333333333334  0.6306666666666667
  0.3040000000000000  0.6306666666666667  0.4346666666666666
  0.2386666666666667  0.6306666666666667  0.5000000000000000
  0.3040000000000000  0.6306666666666667  0.5653333333333334
  0.3040000000000000  0.6960000000000000  0.5000000000000000
  0.3693333333333333  0.3040000000000000  0.4346666666666666
  0.4346666666666666  0.2386666666666667  0.4346666666666666
  0.4346666666666666  0.3040000000000000  0.3693333333333333
  0.3693333333333333  0.2386666666666667  0.5000000000000000
  0.4346666666666666  0.2386666666666667  0.5653333333333334
  0.4346666666666666  0.3040000000000000  0.6306666666666667
  0.3693333333333333  0.4346666666666666  0.3040000000000000
  0.3693333333333333  0.3693333333333333  0.3693333333333333
  0.4346666666666666  0.4346666666666666  0.3693333333333333
  0.3693333333333333  0.3693333333333333  0.5000000000000000
  0.3693333333333333  0.4346666666666666  0.5653333333333334
  0.4346666666666666  0.3693333333333333  0.5653333333333334
  0.4346666666666666  0.3693333333333333  0.6960000000000000
  0.4346666666666666  0.4346666666666666  0.6306666666666667
  0.4346666666666666  0.4346666666666666  0.7613333333333333
  0.3693333333333333  0.5000000000000000  0.2386666666666667
  0.3693333333333333  0.5653333333333334  0.3040000000000000
  0.4346666666666666  0.5000000000000000  0.3040000000000000
  0.4346666666666666  0.5653333333333334  0.2386666666666667
  0.3693333333333333  0.5000000000000000  0.3693333333333333
  0.3693333333333333  0.5653333333333334  0.4346666666666666
  0.3693333333333333  0.5000000000000000  0.5000000000000000
  0.4346666666666666  0.5000000000000000  0.5653333333333334
  0.4346666666666666  0.5653333333333334  0.5000000000000000
  0.3693333333333333  0.5000000000000000  0.6306666666666667
  0.3693333333333333  0.5653333333333334  0.6960000000000000
  0.4346666666666666  0.5000000000000000  0.6960000000000000
  0.4346666666666666  0.5653333333333334  0.6306666666666667
  0.4346666666666666  0.5653333333333334  0.7613333333333333
  0.4346666666666666  0.6306666666666667  0.3040000000000000
  0.3693333333333333  0.6306666666666667  0.3693333333333333
  0.3693333333333333  0.6960000000000000  0.4346666666666666
  0.4346666666666666  0.6306666666666667  0.4346666666666666
  0.4346666666666666  0.6960000000000000  0.3693333333333333
  0.3693333333333333  0.6306666666666667  0.5000000000000000
  0.3693333333333333  0.6960000000000000  0.5653333333333334
  0.4346666666666666  0.6306666666666667  0.5653333333333334
  0.3693333333333333  0.6306666666666667  0.6306666666666667
  0.4346666666666666  0.6306666666666667  0.6960000000000000
  0.4346666666666666  0.6960000000000000  0.6306666666666667
  0.3693333333333333  0.7613333333333333  0.5000000000000000
  0.4346666666666666  0.7613333333333333  0.5653333333333334
  0.5000000000000000  0.3040000000000000  0.4346666666666666
  0.5653333333333334  0.2386666666666667  0.4346666666666666
  0.5653333333333334  0.3040000000000000  0.3693333333333333
  0.5000000000000000  0.2386666666666667  0.5000000000000000
  0.5000000000000000  0.3040000000000000  0.5653333333333334
  0.5653333333333334  0.2386666666666667  0.5653333333333334
  0.5653333333333334  0.3040000000000000  0.5000000000000000
  0.5000000000000000  0.2386666666666667  0.6306666666666667
  0.5000000000000000  0.3040000000000000  0.6960000000000000
  0.5653333333333334  0.3040000000000000  0.6306666666666667
  0.5653333333333334  0.3693333333333333  0.3040000000000000
  0.5653333333333334  0.4346666666666666  0.2386666666666667
  0.5000000000000000  0.3693333333333333  0.3693333333333333
  0.5000000000000000  0.4346666666666666  0.4346666666666666
  0.5653333333333334  0.3693333333333333  0.4346666666666666
  0.5653333333333334  0.4346666666666666  0.3693333333333333
  0.5000000000000000  0.3693333333333333  0.5000000000000000
  0.5000000000000000  0.4346666666666666  0.5653333333333334
  0.5653333333333334  0.4346666666666666  0.5000000000000000
  0.5000000000000000  0.3693333333333333  0.6306666666666667
  0.5000000000000000  0.4346666666666666  0.6960000000000000
  0.5653333333333334  0.3693333333333333  0.6960000000000000
  0.5000000000000000  0.5000000000000000  0.2386666666666667
  0.5000000000000000  0.5653333333333334  0.3040000000000000
  0.5000000000000000  0.5000000000000000  0.3693333333333333
  0.5653333333333334  0.5000000000000000  0.4346666666666666
  0.5653333333333334  0.5653333333333334  0.3693333333333333
  0.5000000000000000  0.5000000000000000  0.5000000000000000
  0.5000000000000000  0.5653333333333334  0.5653333333333334
  0.5653333333333334  0.5000000000000000  0.5653333333333334
  0.5653333333333334  0.5653333333333334  0.5000000000000000
  0.5000000000000000  0.5000000000000000  0.6306666666666667
  0.5000000000000000  0.5653333333333334  0.6960000000000000
  0.5653333333333334  0.5000000000000000  0.6960000000000000
  0.5000000000000000  0.5000000000000000  0.7613333333333333
  0.5653333333333334  0.5653333333333334  0.7613333333333333
  0.5000000000000000  0.6306666666666667  0.2386666666666667
  0.5000000000000000  0.6306666666666667  0.3693333333333333
  0.5000000000000000  0.6960000000000000  0.4346666666666666
  0.5653333333333334  0.6306666666666667  0.4346666666666666
  0.5653333333333334  0.6960000000000000  0.3693333333333333
  0.5000000000000000  0.6306666666666667  0.5000000000000000
  0.5653333333333334  0.6306666666666667  0.5653333333333334
  0.5653333333333334  0.6960000000000000  0.5000000000000000
  0.5000000000000000  0.6306666666666667  0.6306666666666667
  0.5000000000000000  0.6960000000000000  0.6960000000000000
  0.5653333333333334  0.6306666666666667  0.6960000000000000
  0.5000000000000000  0.6306666666666667  0.7613333333333333
  0.5000000000000000  0.7613333333333333  0.5000000000000000
  0.6306666666666667  0.3040000000000000  0.4346666666666666
  0.6306666666666667  0.2386666666666667  0.5000000000000000
  0.6960000000000000  0.3040000000000000  0.5000000000000000
  0.6306666666666667  0.4346666666666666  0.3040000000000000
  0.6306666666666667  0.4346666666666666  0.4346666666666666
  0.6306666666666667  0.3693333333333333  0.5000000000000000
  0.6306666666666667  0.4346666666666666  0.5653333333333334
  0.6960000000000000  0.4346666666666666  0.5000000000000000
  0.6306666666666667  0.3693333333333333  0.6306666666666667
  0.6306666666666667  0.4346666666666666  0.6960000000000000
  0.6960000000000000  0.4346666666666666  0.6306666666666667
  0.6306666666666667  0.5000000000000000  0.2386666666666667
  0.6306666666666667  0.5000000000000000  0.3693333333333333
  0.6960000000000000  0.5000000000000000  0.4346666666666666
  0.6960000000000000  0.5653333333333334  0.3693333333333333
  0.6306666666666667  0.5000000000000000  0.5000000000000000
  0.6306666666666667  0.5653333333333334  0.5653333333333334
  0.6960000000000000  0.5000000000000000  0.5653333333333334
  0.6306666666666667  0.5000000000000000  0.6306666666666667
  0.6306666666666667  0.5653333333333334  0.6960000000000000
  0.6960000000000000  0.5000000000000000  0.6960000000000000
  0.6306666666666667  0.6960000000000000  0.4346666666666666
  0.6960000000000000  0.6306666666666667  0.4346666666666666
  0.6306666666666667  0.6960000000000000  0.5653333333333334
  0.6960000000000000  0.6960000000000000  0.5000000000000000
  0.7613333333333333  0.4346666666666666  0.4346666666666666
  0.7613333333333333  0.3693333333333333  0.5000000000000000
  0.7613333333333333  0.4346666666666666  0.5653333333333334
  0.7613333333333333  0.5000000000000000  0.3693333333333333
  0.7613333333333333  0.5000000000000000  0.5000000000000000
  0.7613333333333333  0.5653333333333334  0.5653333333333334
  0.7613333333333333  0.5000000000000000  0.6306666666666667
